formal/htax/model/design_smt2.smt2
; SMT-LIBv2 description generated by Yosys 0.62 (git sha1 7326bb7d6641500ecb285c291a54a662cb1e76cf, clang++ 21.1.2 -fPIC -O3)
; yosys-smt2-module htax
(declare-sort |htax_s| 0)
(declare-fun |htax_is| (|htax_s|) Bool)
; yosys-smt2-witness {"offset": 0, "path": ["$auto$async2sync.cc:107:execute$107"], "smtname": 0, "smtoffset": 0, "type": "reg", "width": 1}
(declare-fun |htax#0| (|htax_s|) (_ BitVec 1)) ; $auto$async2sync.cc:107:execute$107
; yosys-smt2-register $auto$async2sync.cc:107:execute$107 1
(define-fun |htax_n $auto$async2sync.cc:107:execute$107| ((state |htax_s|)) Bool (= ((_ extract 0 0) (|htax#0| state)) #b1))
; yosys-smt2-witness {"offset": 0, "path": ["$auto$async2sync.cc:116:execute$111"], "smtname": 1, "smtoffset": 0, "type": "reg", "width": 1}
(declare-fun |htax#1| (|htax_s|) (_ BitVec 1)) ; $auto$async2sync.cc:116:execute$111
; yosys-smt2-register $auto$async2sync.cc:116:execute$111 1
(define-fun |htax_n $auto$async2sync.cc:116:execute$111| ((state |htax_s|)) Bool (= ((_ extract 0 0) (|htax#1| state)) #b1))
; yosys-smt2-anyinit htax#2 1 htax.sv:83.5-93.8
; yosys-smt2-witness {"offset": 0, "path": ["\\_witness_", "\\anyinit_procdff_75"], "smtname": 2, "smtoffset": 0, "type": "init", "width": 1}
(declare-fun |htax#2| (|htax_s|) (_ BitVec 1)) ; \_witness_.anyinit_procdff_75
; yosys-smt2-register _witness_.anyinit_procdff_75 1
; yosys-smt2-wire _witness_.anyinit_procdff_75 1
(define-fun |htax_n _witness_.anyinit_procdff_75| ((state |htax_s|)) Bool (= ((_ extract 0 0) (|htax#2| state)) #b1))
; yosys-smt2-anyinit htax#3 32 htax.sv:83.5-93.8
; yosys-smt2-witness {"offset": 0, "path": ["\\_witness_", "\\anyinit_procdff_76"], "smtname": 3, "smtoffset": 0, "type": "init", "width": 32}
(declare-fun |htax#3| (|htax_s|) (_ BitVec 32)) ; \_witness_.anyinit_procdff_76
; yosys-smt2-register _witness_.anyinit_procdff_76 32
; yosys-smt2-wire _witness_.anyinit_procdff_76 32
(define-fun |htax_n _witness_.anyinit_procdff_76| ((state |htax_s|)) (_ BitVec 32) (|htax#3| state))
; yosys-smt2-anyinit htax#4 1 htax.sv:30.5-57.8
; yosys-smt2-witness {"offset": 0, "path": ["\\_witness_", "\\anyinit_procdff_83"], "smtname": 4, "smtoffset": 0, "type": "init", "width": 1}
(declare-fun |htax#4| (|htax_s|) (_ BitVec 1)) ; \_witness_.anyinit_procdff_83
; yosys-smt2-register _witness_.anyinit_procdff_83 1
; yosys-smt2-wire _witness_.anyinit_procdff_83 1
(define-fun |htax_n _witness_.anyinit_procdff_83| ((state |htax_s|)) Bool (= ((_ extract 0 0) (|htax#4| state)) #b1))
; yosys-smt2-anyinit htax#5 32 htax.sv:30.5-57.8
; yosys-smt2-witness {"offset": 0, "path": ["\\_witness_", "\\anyinit_procdff_88"], "smtname": 5, "smtoffset": 0, "type": "init", "width": 32}
(declare-fun |htax#5| (|htax_s|) (_ BitVec 32)) ; \_witness_.anyinit_procdff_88
; yosys-smt2-register _witness_.anyinit_procdff_88 32
; yosys-smt2-wire _witness_.anyinit_procdff_88 32
(define-fun |htax_n _witness_.anyinit_procdff_88| ((state |htax_s|)) (_ BitVec 32) (|htax#5| state))
; yosys-smt2-anyinit htax#6 1 htax.sv:30.5-57.8
; yosys-smt2-witness {"offset": 0, "path": ["\\_witness_", "\\anyinit_procdff_93"], "smtname": 6, "smtoffset": 0, "type": "init", "width": 1}
(declare-fun |htax#6| (|htax_s|) (_ BitVec 1)) ; \_witness_.anyinit_procdff_93
; yosys-smt2-register _witness_.anyinit_procdff_93 1
; yosys-smt2-wire _witness_.anyinit_procdff_93 1
(define-fun |htax_n _witness_.anyinit_procdff_93| ((state |htax_s|)) Bool (= ((_ extract 0 0) (|htax#6| state)) #b1))
; yosys-smt2-anyinit htax#7 4 htax.sv:30.5-57.8
; yosys-smt2-witness {"offset": 0, "path": ["\\_witness_", "\\anyinit_procdff_98"], "smtname": 7, "smtoffset": 0, "type": "init", "width": 4}
(declare-fun |htax#7| (|htax_s|) (_ BitVec 4)) ; \_witness_.anyinit_procdff_98
; yosys-smt2-register _witness_.anyinit_procdff_98 4
; yosys-smt2-wire _witness_.anyinit_procdff_98 4
(define-fun |htax_n _witness_.anyinit_procdff_98| ((state |htax_s|)) (_ BitVec 4) (|htax#7| state))
(declare-fun |htax#8| (|htax_s|) Bool) ; \tx_valid
(declare-fun |htax#9| (|htax_s|) Bool) ; \rst_n
(define-fun |htax#10| ((state |htax_s|)) (_ BitVec 1) (ite (|htax#9| state) (|htax#4| state) #b0)) ; \state
(define-fun |htax#11| ((state |htax_s|)) (_ BitVec 1) (bvnot (|htax#10| state))) ; $eq$htax.sv:26$4_Y
(define-fun |htax#12| ((state |htax_s|)) Bool (and (or  (|htax#9| state) false) (or  (= ((_ extract 0 0) (|htax#11| state)) #b1) false))) ; $logic_and$htax.sv:26$5_Y
(define-fun |htax#13| ((state |htax_s|)) (_ BitVec 4) (ite (|htax#9| state) (|htax#7| state) #b1000)) ; \credit_count
(define-fun |htax#14| ((state |htax_s|)) Bool (distinct (|htax#13| state) #b0000)) ; $ne$htax.sv:26$6_Y
(define-fun |htax#15| ((state |htax_s|)) Bool (and (or  (|htax#12| state) false) (or  (|htax#14| state) false))) ; \tx_ready
(define-fun |htax#16| ((state |htax_s|)) Bool (and (or  (|htax#8| state) false) (or  (|htax#15| state) false))) ; \accept
; yosys-smt2-wire accept 1
(define-fun |htax_n accept| ((state |htax_s|)) Bool (|htax#16| state))
(declare-fun |htax#17| (|htax_s|) Bool) ; \clk
; yosys-smt2-input clk 1
; yosys-smt2-wire clk 1
; yosys-smt2-clock clk posedge
; yosys-smt2-witness {"offset": 0, "path": ["\\clk"], "smtname": "clk", "smtoffset": 0, "type": "posedge", "width": 1}
; yosys-smt2-witness {"offset": 0, "path": ["\\clk"], "smtname": "clk", "smtoffset": 0, "type": "input", "width": 1}
(define-fun |htax_n clk| ((state |htax_s|)) Bool (|htax#17| state))
; yosys-smt2-wire credit_count 4
(define-fun |htax_n credit_count| ((state |htax_s|)) (_ BitVec 4) (|htax#13| state))
; yosys-smt2-anyinit htax#18 1 htax.sv:73.5-81.8
; yosys-smt2-witness {"offset": 0, "path": ["\\f_past_valid"], "smtname": 18, "smtoffset": 0, "type": "init", "width": 1}
(declare-fun |htax#18| (|htax_s|) (_ BitVec 1)) ; \f_past_valid
; yosys-smt2-register f_past_valid 1
; yosys-smt2-wire f_past_valid 1
(define-fun |htax_n f_past_valid| ((state |htax_s|)) Bool (= ((_ extract 0 0) (|htax#18| state)) #b1))
; yosys-smt2-anyinit htax#19 1 htax.sv:73.5-81.8
; yosys-smt2-witness {"offset": 0, "path": ["\\f_reset_seen"], "smtname": 19, "smtoffset": 0, "type": "init", "width": 1}
(declare-fun |htax#19| (|htax_s|) (_ BitVec 1)) ; \f_reset_seen
; yosys-smt2-register f_reset_seen 1
; yosys-smt2-wire f_reset_seen 1
(define-fun |htax_n f_reset_seen| ((state |htax_s|)) Bool (= ((_ extract 0 0) (|htax#19| state)) #b1))
; yosys-smt2-input rst_n 1
; yosys-smt2-wire rst_n 1
; yosys-smt2-witness {"offset": 0, "path": ["\\rst_n"], "smtname": "rst_n", "smtoffset": 0, "type": "input", "width": 1}
(define-fun |htax_n rst_n| ((state |htax_s|)) Bool (|htax#9| state))
(define-fun |htax#20| ((state |htax_s|)) (_ BitVec 32) (ite (|htax#9| state) (|htax#5| state) #b00000000000000000000000000000000)) ; \rx_data_q
; yosys-smt2-output rx_data 32
; yosys-smt2-wire rx_data 32
(define-fun |htax_n rx_data| ((state |htax_s|)) (_ BitVec 32) (|htax#20| state))
; yosys-smt2-wire rx_data_q 32
(define-fun |htax_n rx_data_q| ((state |htax_s|)) (_ BitVec 32) (|htax#20| state))
(define-fun |htax#21| ((state |htax_s|)) (_ BitVec 1) (ite (|htax#9| state) (|htax#6| state) #b0)) ; \rx_valid_q
; yosys-smt2-output rx_valid 1
; yosys-smt2-wire rx_valid 1
(define-fun |htax_n rx_valid| ((state |htax_s|)) Bool (= ((_ extract 0 0) (|htax#21| state)) #b1))
; yosys-smt2-wire rx_valid_q 1
(define-fun |htax_n rx_valid_q| ((state |htax_s|)) Bool (= ((_ extract 0 0) (|htax#21| state)) #b1))
; yosys-smt2-wire state 1
(define-fun |htax_n state| ((state |htax_s|)) Bool (= ((_ extract 0 0) (|htax#10| state)) #b1))
(declare-fun |htax#22| (|htax_s|) (_ BitVec 32)) ; \tx_data
; yosys-smt2-input tx_data 32
; yosys-smt2-wire tx_data 32
; yosys-smt2-witness {"offset": 0, "path": ["\\tx_data"], "smtname": "tx_data", "smtoffset": 0, "type": "input", "width": 32}
(define-fun |htax_n tx_data| ((state |htax_s|)) (_ BitVec 32) (|htax#22| state))
; yosys-smt2-output tx_ready 1
; yosys-smt2-wire tx_ready 1
(define-fun |htax_n tx_ready| ((state |htax_s|)) Bool (|htax#15| state))
; yosys-smt2-input tx_valid 1
; yosys-smt2-wire tx_valid 1
; yosys-smt2-witness {"offset": 0, "path": ["\\tx_valid"], "smtname": "tx_valid", "smtoffset": 0, "type": "input", "width": 1}
(define-fun |htax_n tx_valid| ((state |htax_s|)) Bool (|htax#8| state))
(declare-fun |htax#23| (|htax_s|) (_ BitVec 3)) ; \tx_vc
; yosys-smt2-input tx_vc 3
; yosys-smt2-wire tx_vc 3
; yosys-smt2-witness {"offset": 0, "path": ["\\tx_vc"], "smtname": "tx_vc", "smtoffset": 0, "type": "input", "width": 3}
(define-fun |htax_n tx_vc| ((state |htax_s|)) (_ BitVec 3) (|htax#23| state))
(define-fun |htax#24| ((state |htax_s|)) (_ BitVec 1) (bvnot (ite (|htax#17| state) #b1 #b0))) ; $auto$rtlil.cc:3337:Not$160
; yosys-smt2-assume 0 $auto$formalff.cc:987:execute$161
(define-fun |htax_u 0| ((state |htax_s|)) Bool (or (= ((_ extract 0 0) (|htax#24| state)) #b1) (not true))) ; $auto$formalff.cc:987:execute$161
; yosys-smt2-assert 0 _witness_.check_assert_htax_sv_87_23 htax.sv:87.13-87.49
(define-fun |htax_a 0| ((state |htax_s|)) Bool (or (= ((_ extract 0 0) (|htax#1| state)) #b1) (not (= ((_ extract 0 0) (|htax#0| state)) #b1)))) ; _witness_.check_assert_htax_sv_87_23
(define-fun |htax#25| ((state |htax_s|)) Bool (not (or  (|htax#9| state) false))) ; $logic_not$htax.sv:70$31_Y
(define-fun |htax#26| ((state |htax_s|)) Bool (|htax_is| state)) ; $auto$rtlil.cc:3384:And$116
; yosys-smt2-assume 1 _witness_.check_assume_htax_sv_70_30 htax.sv:70.9-70.24
(define-fun |htax_u 1| ((state |htax_s|)) Bool (or (|htax#25| state) (not (|htax#26| state)))) ; _witness_.check_assume_htax_sv_70_30
(define-fun |htax#27| ((state |htax_s|)) Bool (not (or  (|htax#8| state) false))) ; $logic_not$htax.sv:85$21_Y
(define-fun |htax#28| ((state |htax_s|)) (_ BitVec 1) (ite (|htax#9| state) #b0 #b1)) ; $assume$htax.sv:85$20_EN
; yosys-smt2-assume 2 _witness_.check_assume_htax_sv_85_20 htax.sv:85.13-85.31
(define-fun |htax_u 2| ((state |htax_s|)) Bool (or (|htax#27| state) (not (= ((_ extract 0 0) (|htax#28| state)) #b1)))) ; _witness_.check_assume_htax_sv_85_20
(define-fun |htax#29| ((state |htax_s|)) Bool (= (|htax#22| state) (|htax#3| state))) ; $eq$htax.sv:91$26_Y
(define-fun |htax#30| ((state |htax_s|)) (_ BitVec 1) (ite (= ((_ extract 0 0) (|htax#2| state)) #b1) #b1 #b0)) ; $procmux$32_Y
(define-fun |htax#31| ((state |htax_s|)) Bool (and (or  (= ((_ extract 0 0) (|htax#18| state)) #b1) false) (or  (= ((_ extract 0 0) (|htax#19| state)) #b1) false))) ; $logic_and$htax.sv:86$22_Y
(define-fun |htax#32| ((state |htax_s|)) (_ BitVec 1) (ite (|htax#31| state) (|htax#30| state) #b0)) ; $procmux$34_Y
(define-fun |htax#33| ((state |htax_s|)) (_ BitVec 1) (ite (|htax#9| state) (|htax#32| state) #b0)) ; $assume$htax.sv:91$25_EN
; yosys-smt2-assume 3 _witness_.check_assume_htax_sv_91_25 htax.sv:91.17-91.51
(define-fun |htax_u 3| ((state |htax_s|)) Bool (or (|htax#29| state) (not (= ((_ extract 0 0) (|htax#33| state)) #b1)))) ; _witness_.check_assume_htax_sv_91_25
(define-fun |htax#34| ((state |htax_s|)) (_ BitVec 1) (ite (|htax#9| state) #b1 #b0)) ; $0\f_past_valid[0:0]
(define-fun |htax#35| ((state |htax_s|)) (_ BitVec 4) (bvadd (|htax#13| state) #b0001)) ; $add$htax.sv:50$12_Y
(define-fun |htax#36| ((state |htax_s|)) Bool (bvult (|htax#13| state) #b1000)) ; $lt$htax.sv:49$11_Y
(define-fun |htax#37| ((state |htax_s|)) (_ BitVec 4) (ite (|htax#36| state) (|htax#35| state) (|htax#13| state))) ; $procmux$53_Y
(define-fun |htax#38| ((state |htax_s|)) (_ BitVec 4) (bvsub (|htax#13| state) #b0001)) ; $sub$htax.sv:42$10_Y
(define-fun |htax#39| ((state |htax_s|)) (_ BitVec 4) (ite (|htax#16| state) (|htax#38| state) (|htax#13| state))) ; $procmux$57_Y
(define-fun |htax#40| ((state |htax_s|)) (_ BitVec 4) (ite (= ((_ extract 0 0) (|htax#11| state)) #b1) (|htax#39| state) (ite (= ((_ extract 0 0) (|htax#10| state)) #b1) (|htax#37| state) (|htax#13| state)))) ; $0\credit_count[3:0]
(define-fun |htax#41| ((state |htax_s|)) (_ BitVec 4) (ite (|htax#9| state) (|htax#40| state) #b1000)) ; $auto$rtlil.cc:3472:Mux$156
(define-fun |htax#42| ((state |htax_s|)) (_ BitVec 1) (ite (|htax#16| state) #b1 (|htax#21| state))) ; $procmux$62_Y
(define-fun |htax#43| ((state |htax_s|)) (_ BitVec 1) (ite (= ((_ extract 0 0) (|htax#11| state)) #b1) (|htax#42| state) (ite (= ((_ extract 0 0) (|htax#10| state)) #b1) #b0 (|htax#21| state)))) ; $0\rx_valid_q[0:0]
(define-fun |htax#44| ((state |htax_s|)) (_ BitVec 1) (ite (|htax#9| state) (|htax#43| state) #b0)) ; $auto$rtlil.cc:3472:Mux$154
(define-fun |htax#45| ((state |htax_s|)) (_ BitVec 32) (ite (|htax#16| state) (|htax#22| state) (|htax#20| state))) ; $procmux$66_Y
(define-fun |htax#46| ((state |htax_s|)) (_ BitVec 32) (ite (= ((_ extract 0 0) (|htax#10| state)) #b1) (|htax#20| state) (|htax#45| state))) ; $0\rx_data_q[31:0]
(define-fun |htax#47| ((state |htax_s|)) (_ BitVec 32) (ite (|htax#9| state) (|htax#46| state) #b00000000000000000000000000000000)) ; $auto$rtlil.cc:3472:Mux$152
(define-fun |htax#48| ((state |htax_s|)) (_ BitVec 1) (ite (|htax#16| state) #b1 #b0)) ; $procmux$72_Y
(define-fun |htax#49| ((state |htax_s|)) (_ BitVec 1) (ite (= ((_ extract 0 0) (|htax#10| state)) #b1) #b0 (|htax#48| state))) ; $0\state[0:0]
(define-fun |htax#50| ((state |htax_s|)) (_ BitVec 1) (ite (|htax#9| state) (|htax#49| state) #b0)) ; $auto$rtlil.cc:3472:Mux$150
(define-fun |htax#51| ((state |htax_s|)) Bool (not (or  (|htax#15| state) false))) ; $logic_not$htax.sv:90$27_Y
(define-fun |htax#52| ((state |htax_s|)) Bool (and (or  (|htax#8| state) false) (or  (|htax#51| state) false))) ; $0$past$htax.sv:90$1$0[0:0]$17
(define-fun |htax#53| ((state |htax_s|)) Bool (bvule (|htax#13| state) #b1000)) ; $le$htax.sv:87$24_Y
(define-fun |htax#54| ((state |htax_s|)) (_ BitVec 1) (ite (|htax#31| state) #b1 #b0)) ; $procmux$39_Y
(define-fun |htax#55| ((state |htax_s|)) (_ BitVec 1) (ite (|htax#9| state) (|htax#54| state) #b0)) ; $assert$htax.sv:87$23_EN
(define-fun |htax_a| ((state |htax_s|)) Bool 
  (|htax_a 0| state)
)
(define-fun |htax_u| ((state |htax_s|)) Bool (and
  (|htax_u 0| state)
  (|htax_u 1| state)
  (|htax_u 2| state)
  (|htax_u 3| state)
))
(define-fun |htax_i| ((state |htax_s|)) Bool (and
  (= (= ((_ extract 0 0) (|htax#0| state)) #b1) false) ; $auto$async2sync.cc:107:execute$107
  (= (= ((_ extract 0 0) (|htax#1| state)) #b1) true) ; $auto$async2sync.cc:116:execute$111
))
(define-fun |htax_h| ((state |htax_s|)) Bool true)
(define-fun |htax_t| ((state |htax_s|) (next_state |htax_s|)) Bool (and
  (= (|htax#34| state) (|htax#19| next_state)) ; $procdff$78 \f_reset_seen
  (= (|htax#34| state) (|htax#18| next_state)) ; $procdff$77 \f_past_valid
  (= (|htax#41| state) (|htax#7| next_state)) ; $procdff$98 \_witness_.anyinit_procdff_98
  (= (|htax#44| state) (|htax#6| next_state)) ; $procdff$93 \_witness_.anyinit_procdff_93
  (= (|htax#47| state) (|htax#5| next_state)) ; $procdff$88 \_witness_.anyinit_procdff_88
  (= (|htax#50| state) (|htax#4| next_state)) ; $procdff$83 \_witness_.anyinit_procdff_83
  (= (|htax#22| state) (|htax#3| next_state)) ; $procdff$76 \_witness_.anyinit_procdff_76
  (= (ite (|htax#52| state) #b1 #b0) (|htax#2| next_state)) ; $procdff$75 \_witness_.anyinit_procdff_75
  (= (ite (|htax#53| state) #b1 #b0) (|htax#1| next_state)) ; $auto$async2sync.cc:118:execute$112 $auto$async2sync.cc:116:execute$111
  (= (|htax#55| state) (|htax#0| next_state)) ; $auto$async2sync.cc:110:execute$109 $auto$async2sync.cc:107:execute$107
)) ; end of module htax
; yosys-smt2-topmod htax
; end of yosys output
